c numero: 53
c nombre: n-45-d-0.5
c densidad: 0.5
p edges 45 467
e 1 2
e 1 3
e 1 6
e 1 8
e 1 9
e 1 12
e 1 13
e 1 14
e 1 17
e 1 18
e 1 20
e 1 21
e 1 22
e 1 26
e 1 28
e 1 30
e 1 31
e 1 32
e 1 34
e 1 36
e 1 41
e 1 43
e 1 45
e 2 5
e 2 7
e 2 8
e 2 9
e 2 12
e 2 16
e 2 18
e 2 19
e 2 23
e 2 24
e 2 25
e 2 27
e 2 28
e 2 29
e 2 31
e 2 32
e 2 34
e 2 36
e 2 37
e 2 38
e 2 39
e 2 41
e 2 42
e 2 45
e 3 4
e 3 7
e 3 8
e 3 9
e 3 10
e 3 19
e 3 20
e 3 22
e 3 25
e 3 27
e 3 28
e 3 29
e 3 30
e 3 32
e 3 33
e 3 34
e 3 37
e 3 38
e 3 39
e 3 41
e 3 43
e 3 45
e 4 7
e 4 10
e 4 12
e 4 13
e 4 15
e 4 19
e 4 21
e 4 25
e 4 28
e 4 30
e 4 32
e 4 36
e 4 37
e 4 38
e 4 39
e 4 40
e 4 43
e 4 45
e 5 6
e 5 8
e 5 10
e 5 12
e 5 14
e 5 17
e 5 19
e 5 23
e 5 24
e 5 26
e 5 29
e 5 30
e 5 31
e 5 33
e 5 34
e 5 38
e 5 41
e 5 42
e 6 11
e 6 13
e 6 14
e 6 18
e 6 20
e 6 21
e 6 22
e 6 24
e 6 25
e 6 32
e 6 33
e 6 35
e 6 38
e 6 40
e 6 42
e 6 44
e 6 45
e 7 9
e 7 12
e 7 13
e 7 14
e 7 15
e 7 17
e 7 18
e 7 21
e 7 22
e 7 30
e 7 31
e 7 37
e 7 39
e 7 40
e 7 41
e 7 42
e 7 43
e 7 45
e 8 10
e 8 12
e 8 14
e 8 16
e 8 17
e 8 18
e 8 21
e 8 23
e 8 24
e 8 27
e 8 29
e 8 31
e 8 32
e 8 33
e 8 34
e 8 36
e 8 38
e 8 41
e 8 42
e 8 44
e 9 10
e 9 11
e 9 18
e 9 19
e 9 20
e 9 22
e 9 23
e 9 24
e 9 26
e 9 27
e 9 28
e 9 33
e 9 34
e 9 35
e 9 36
e 9 38
e 9 41
e 10 11
e 10 13
e 10 14
e 10 17
e 10 22
e 10 25
e 10 29
e 10 31
e 10 32
e 10 34
e 10 35
e 10 37
e 10 39
e 10 40
e 10 41
e 10 45
e 11 12
e 11 13
e 11 14
e 11 15
e 11 16
e 11 24
e 11 27
e 11 29
e 11 30
e 11 32
e 11 34
e 11 35
e 11 36
e 11 40
e 11 41
e 11 45
e 12 20
e 12 22
e 12 24
e 12 25
e 12 30
e 12 32
e 12 33
e 12 39
e 12 41
e 12 44
e 13 16
e 13 19
e 13 20
e 13 22
e 13 23
e 13 24
e 13 25
e 13 26
e 13 28
e 13 29
e 13 31
e 13 36
e 13 39
e 13 40
e 13 43
e 13 44
e 14 15
e 14 16
e 14 17
e 14 18
e 14 20
e 14 22
e 14 29
e 14 32
e 14 33
e 14 37
e 14 40
e 14 41
e 14 42
e 14 44
e 14 45
e 15 16
e 15 18
e 15 19
e 15 21
e 15 23
e 15 24
e 15 27
e 15 30
e 15 31
e 15 33
e 15 35
e 15 36
e 15 37
e 15 38
e 15 43
e 15 45
e 16 17
e 16 19
e 16 20
e 16 22
e 16 25
e 16 26
e 16 28
e 16 29
e 16 30
e 16 31
e 16 32
e 16 40
e 16 44
e 17 18
e 17 21
e 17 23
e 17 24
e 17 26
e 17 28
e 17 29
e 17 30
e 17 35
e 17 37
e 17 44
e 17 45
e 18 22
e 18 23
e 18 26
e 18 27
e 18 31
e 18 32
e 18 33
e 18 35
e 18 42
e 18 45
e 19 20
e 19 23
e 19 25
e 19 26
e 19 27
e 19 28
e 19 29
e 19 31
e 19 32
e 19 33
e 19 34
e 19 35
e 19 38
e 19 43
e 19 44
e 20 21
e 20 23
e 20 24
e 20 25
e 20 26
e 20 27
e 20 34
e 20 35
e 20 38
e 20 45
e 21 22
e 21 24
e 21 26
e 21 29
e 21 30
e 21 31
e 21 32
e 21 34
e 21 35
e 21 36
e 21 37
e 21 39
e 21 40
e 21 41
e 21 42
e 22 24
e 22 25
e 22 26
e 22 28
e 22 30
e 22 34
e 22 37
e 22 41
e 22 42
e 22 45
e 23 28
e 23 29
e 23 30
e 23 34
e 23 35
e 23 37
e 23 40
e 23 43
e 23 45
e 24 26
e 24 27
e 24 30
e 24 33
e 24 34
e 24 37
e 24 39
e 24 41
e 24 42
e 24 44
e 24 45
e 25 26
e 25 28
e 25 29
e 25 31
e 25 33
e 25 35
e 25 36
e 25 37
e 25 38
e 25 40
e 25 41
e 25 42
e 26 27
e 26 33
e 26 34
e 26 35
e 26 39
e 26 42
e 27 29
e 27 32
e 27 35
e 27 38
e 27 42
e 28 29
e 28 30
e 28 31
e 28 32
e 28 36
e 28 39
e 28 42
e 29 31
e 29 33
e 29 34
e 29 35
e 29 36
e 29 38
e 29 39
e 29 40
e 29 41
e 29 42
e 29 43
e 29 44
e 29 45
e 30 31
e 30 32
e 30 33
e 30 40
e 30 44
e 31 33
e 31 34
e 31 38
e 31 39
e 31 42
e 31 43
e 31 45
e 32 33
e 32 34
e 32 35
e 32 37
e 32 38
e 32 41
e 32 44
e 32 45
e 33 35
e 33 40
e 34 36
e 34 39
e 34 40
e 34 41
e 34 45
e 35 36
e 35 38
e 35 39
e 35 40
e 35 41
e 35 42
e 35 44
e 36 37
e 36 39
e 36 40
e 37 39
e 37 40
e 37 42
e 37 45
e 38 39
e 38 40
e 38 41
e 38 43
e 39 41
e 39 43
e 39 44
e 40 45
e 41 42
e 41 45
e 42 45
e 43 45
